c A SAT instance generated from a 3-CNF formula that had 30 clauses and 20 variables
p cnf 20 30
-10 12 17 0
-20 -19 -8 0
-7 1 -5 0
12 3 -11 0
8 -12 20 0
-17 5 18 0
-12 -11 -3 0
-8 12 -15 0
-10 14 11 0
-20 2 16 0
-14 19 10 0
8 -6 -13 0
4 -10 -9 0
20 -3 -9 0
-17 -7 -13 0
-5 -15 -8 0
-14 -10 -6 0
13 -19 16 0
7 5 3 0
14 1 6 0
-16 17 -12 0
2 15 14 0
9 13 -8 0
-14 -20 15 0
13 -12 9 0
-13 -17 2 0
15 9 17 0
-10 -8 -4 0
-7 -5 1 0
13 -3 12 0
